SDVRP instances/custom_instances/p04_11_splitx10_0.vrp
NAME:p04_11_splitx10_
BEST_KNOWN: 0
COMMENT: 0
DIMENSION: 666
CAPACITY: 2000
EDGE_WEIGHT_FORMAT: FUNCTION
EDGE_WEIGHT_TYPE: EXACT_2D
NODE_COORD_SECTION
1 0.00000 0.00000
2 -22 -26
3 -22 -26
4 -22 -26
5 -22 -26
6 -42 45
7 -42 45
8 -42 45
9 -14 46
10 -14 46
11 -14 46
12 -14 46
13 -14 46
14 -32 -11
15 -32 -11
16 20 43
17 20 43
18 20 43
19 20 43
20 19 -37
21 8 -12
22 8 -12
23 8 -12
24 8 -12
25 8 -12
26 8 -12
27 -38 -49
28 -38 -49
29 -38 -49
30 -33 -17
31 -33 -17
32 -33 -17
33 -33 -17
34 -33 -17
35 48 -41
36 48 -41
37 48 -41
38 48 -41
39 48 -41
40 41 9
41 41 9
42 41 9
43 41 9
44 41 9
45 41 9
46 30 44
47 30 44
48 30 44
49 30 44
50 30 44
51 30 44
52 -50 -12
53 -50 -12
54 -50 -12
55 -50 -12
56 -50 -12
57 -50 -12
58 -48 34
59 -48 34
60 20 -4
61 20 -4
62 20 -4
63 20 -4
64 20 -4
65 20 -4
66 20 -4
67 20 -4
68 26 -42
69 26 -42
70 26 -42
71 26 -42
72 4 -17
73 4 -17
74 4 -17
75 4 -17
76 -10 16
77 -10 16
78 -10 16
79 -10 16
80 -10 16
81 -10 16
82 -10 16
83 -31 7
84 -31 7
85 -31 7
86 -31 7
87 -31 7
88 25 -12
89 25 -12
90 25 -12
91 25 -12
92 25 -12
93 1 49
94 1 49
95 1 49
96 1 49
97 31 33
98 31 33
99 31 33
100 31 33
101 31 33
102 0 -39
103 0 -39
104 0 -39
105 0 -39
106 0 -39
107 46 -35
108 46 -35
109 46 -35
110 46 -35
111 10 36
112 10 36
113 10 36
114 23 41
115 23 41
116 -44 -37
117 -44 -37
118 -44 -37
119 -44 -37
120 7 -41
121 7 -41
122 7 -41
123 7 -41
124 7 -41
125 18 27
126 18 27
127 18 27
128 12 -28
129 12 -28
130 14 34
131 14 34
132 48 19
133 48 19
134 -46 -30
135 -46 -30
136 -46 -30
137 -46 -30
138 -46 -30
139 -46 -30
140 -46 -30
141 32 -36
142 32 -36
143 32 -36
144 32 -36
145 32 -36
146 18 -41
147 18 -41
148 18 -41
149 45 -43
150 45 -43
151 45 -43
152 45 -43
153 45 -43
154 45 -43
155 45 -43
156 49 -41
157 49 -41
158 49 -41
159 49 -41
160 49 -41
161 49 -41
162 49 -41
163 -21 14
164 -21 14
165 -21 14
166 -21 14
167 -21 14
168 9 -23
169 9 -23
170 9 -23
171 9 -23
172 -2 13
173 -2 13
174 -2 13
175 -2 13
176 -2 13
177 -14 -3
178 -14 -3
179 -14 -3
180 -14 -3
181 -11 48
182 -11 48
183 48 32
184 48 32
185 48 32
186 48 32
187 -29 26
188 -29 26
189 -29 26
190 -29 26
191 45 33
192 45 33
193 45 33
194 45 33
195 45 33
196 45 33
197 45 33
198 -6 30
199 -6 30
200 -6 30
201 -6 30
202 -6 30
203 -6 30
204 -6 30
205 -47 -39
206 -47 -39
207 -47 -39
208 -47 -39
209 3 -3
210 3 -3
211 3 -3
212 3 -3
213 3 -3
214 3 -3
215 -39 -21
216 -39 -21
217 -39 -21
218 -39 -21
219 20 5
220 20 5
221 20 5
222 20 5
223 20 5
224 20 5
225 20 5
226 20 5
227 47 15
228 47 15
229 47 15
230 47 15
231 47 15
232 47 15
233 4 -22
234 4 -22
235 4 -22
236 -43 23
237 -43 23
238 -43 23
239 -43 23
240 -43 23
241 7 37
242 7 37
243 7 37
244 7 37
245 7 37
246 7 37
247 17 17
248 17 17
249 17 17
250 34 45
251 34 45
252 34 45
253 21 9
254 21 9
255 21 9
256 21 9
257 21 9
258 21 9
259 21 9
260 -29 11
261 -29 11
262 -29 11
263 -20 -29
264 -20 -29
265 -20 -29
266 -20 -29
267 -20 -29
268 -20 -29
269 16 34
270 16 34
271 16 34
272 -25 -44
273 -25 -44
274 -25 -44
275 -25 -44
276 -25 -44
277 -40 3
278 -40 3
279 -40 3
280 -40 3
281 -40 3
282 2 40
283 2 40
284 2 40
285 2 40
286 -29 8
287 -29 8
288 -29 8
289 -29 8
290 23 -4
291 23 -4
292 23 -4
293 23 -4
294 -11 43
295 -11 43
296 -11 43
297 -20 -45
298 -20 -45
299 -20 -45
300 -48 7
301 -48 7
302 -48 7
303 41 -33
304 41 -33
305 41 -33
306 41 -33
307 29 -16
308 29 -16
309 46 -30
310 46 -30
311 46 -30
312 46 -30
313 46 -30
314 46 -30
315 46 -30
316 26 27
317 26 27
318 -14 -34
319 -14 -34
320 -14 -34
321 -36 -50
322 -36 -50
323 -36 -50
324 -36 -50
325 -36 -50
326 3 6
327 3 6
328 42 46
329 42 46
330 42 46
331 42 46
332 -26 25
333 -26 25
334 -26 25
335 -26 25
336 32 -25
337 32 -25
338 32 -25
339 32 -25
340 32 -25
341 32 -25
342 3 -21
343 3 -21
344 3 -21
345 3 -21
346 3 -21
347 3 -21
348 -14 19
349 -14 19
350 -14 19
351 -14 19
352 36 5
353 36 5
354 36 5
355 36 5
356 -45 -19
357 -45 -19
358 -45 -19
359 -45 -19
360 42 4
361 42 4
362 -39 -20
363 -39 -20
364 -39 -20
365 -36 49
366 -36 49
367 -36 49
368 -36 49
369 -36 49
370 -36 49
371 -36 49
372 -36 49
373 -50 49
374 -50 49
375 -50 49
376 -50 49
377 -50 49
378 -50 49
379 -34 -39
380 -34 -39
381 -34 -39
382 -34 -39
383 -34 -39
384 20 -1
385 20 -1
386 20 -1
387 20 -1
388 -18 -25
389 -18 -25
390 -18 -25
391 -18 -25
392 -18 -25
393 -18 -25
394 30 -16
395 30 -16
396 30 -16
397 30 -16
398 30 -16
399 30 -16
400 30 -16
401 -43 -5
402 -43 -5
403 -43 -5
404 3 50
405 3 50
406 -43 8
407 -43 8
408 -43 8
409 -43 8
410 -43 8
411 -43 8
412 -22 -50
413 -22 -50
414 -22 -50
415 40 20
416 40 20
417 40 20
418 40 20
419 40 20
420 40 20
421 40 20
422 3 7
423 3 7
424 3 7
425 3 7
426 39 -39
427 39 -39
428 39 -39
429 39 -39
430 39 -39
431 -23 48
432 -23 48
433 31 42
434 31 42
435 31 42
436 31 42
437 8 23
438 8 23
439 8 23
440 8 23
441 8 23
442 8 23
443 4 0
444 4 0
445 4 0
446 4 0
447 -11 -9
448 -11 -9
449 -11 -9
450 -11 -9
451 -11 -9
452 4 9
453 4 9
454 4 9
455 4 9
456 34 45
457 34 45
458 25 -12
459 25 -12
460 25 -12
461 25 -12
462 25 -12
463 25 -12
464 8 28
465 8 28
466 8 28
467 8 28
468 8 28
469 8 28
470 8 28
471 8 28
472 16 20
473 16 20
474 16 20
475 16 20
476 40 15
477 40 15
478 40 15
479 40 15
480 40 15
481 36 22
482 36 22
483 36 22
484 36 22
485 36 22
486 35 3
487 35 3
488 -16 28
489 -16 28
490 -16 28
491 -16 28
492 -16 28
493 -16 28
494 -41 50
495 -41 50
496 -41 50
497 -41 50
498 -25 -1
499 -25 -1
500 -25 -1
501 -25 -1
502 -29 8
503 -29 8
504 -29 8
505 17 8
506 17 8
507 17 8
508 17 8
509 17 8
510 17 8
511 26 -25
512 26 -25
513 26 -25
514 26 -25
515 26 -25
516 26 -25
517 26 -25
518 -45 3
519 -45 3
520 -45 3
521 -45 3
522 -45 3
523 -45 3
524 -26 -21
525 -26 -21
526 -26 -21
527 -26 -21
528 20 16
529 20 16
530 20 16
531 20 16
532 20 16
533 20 16
534 20 16
535 -6 38
536 -6 38
537 -6 38
538 -6 38
539 -6 38
540 20 -46
541 20 -46
542 20 -46
543 -25 5
544 -25 5
545 18 -8
546 18 -8
547 18 -8
548 -38 -26
549 -38 -26
550 -38 -26
551 41 3
552 41 3
553 50 -27
554 50 -27
555 50 -27
556 50 -27
557 50 -27
558 -45 49
559 -45 49
560 -45 49
561 -47 19
562 -47 19
563 -47 19
564 -47 19
565 -47 19
566 -47 19
567 -47 19
568 -19 41
569 -19 41
570 -19 41
571 -19 41
572 34 -8
573 34 -8
574 34 -8
575 34 -8
576 34 -8
577 34 -8
578 34 -8
579 -50 29
580 -50 29
581 -50 29
582 -50 29
583 33 -10
584 33 -10
585 33 -10
586 33 -10
587 45 -13
588 45 -13
589 45 -13
590 45 -13
591 14 14
592 14 14
593 27 2
594 27 2
595 -25 9
596 -25 9
597 -25 9
598 -25 9
599 -25 9
600 -25 9
601 -25 9
602 -16 -16
603 -16 -16
604 -16 -16
605 -16 -16
606 -16 -16
607 -14 -3
608 -14 -3
609 -14 -3
610 -14 -3
611 -14 -3
612 -14 -3
613 -14 -3
614 22 -49
615 22 -49
616 22 -49
617 22 -49
618 22 -49
619 4 5
620 4 5
621 4 5
622 4 5
623 4 5
624 4 5
625 -2 36
626 -2 36
627 -6 38
628 -6 38
629 -6 38
630 -35 -34
631 -35 -34
632 -35 -34
633 -35 -34
634 -35 -34
635 18 36
636 18 36
637 18 36
638 18 36
639 18 36
640 18 36
641 18 36
642 -6 37
643 -6 37
644 -6 37
645 -6 37
646 -6 37
647 -6 37
648 5 -47
649 5 -47
650 5 -47
651 50 -28
652 50 -28
653 50 -28
654 50 -28
655 -25 -7
656 -25 -7
657 -25 -7
658 -25 -7
659 -25 -7
660 2 32
661 2 32
662 2 32
663 -46 41
664 -46 41
665 -46 41
666 -46 41
DEMAND_SECTION
1 0
2 200
3 20
4 20
5 10
6 400
7 400
8 100
9 200
10 100
11 20
12 20
13 20
14 400
15 100
16 400
17 400
18 100
19 10
20 400
21 400
22 400
23 20
24 20
25 20
26 20
27 400
28 400
29 10
30 400
31 200
32 100
33 20
34 10
35 400
36 400
37 20
38 20
39 20
40 400
41 20
42 20
43 20
44 20
45 10
46 400
47 200
48 20
49 20
50 20
51 10
52 400
53 20
54 20
55 20
56 20
57 10
58 400
59 100
60 400
61 200
62 100
63 20
64 20
65 20
66 20
67 10
68 400
69 200
70 20
71 10
72 200
73 20
74 20
75 20
76 400
77 200
78 20
79 20
80 20
81 20
82 10
83 400
84 400
85 20
86 20
87 10
88 400
89 200
90 20
91 20
92 10
93 400
94 200
95 100
96 20
97 400
98 200
99 100
100 20
101 10
102 200
103 100
104 20
105 20
106 20
107 400
108 400
109 20
110 10
111 200
112 100
113 10
114 400
115 10
116 400
117 20
118 20
119 20
120 400
121 100
122 20
123 20
124 20
125 400
126 100
127 10
128 200
129 100
130 400
131 20
132 400
133 100
134 400
135 400
136 100
137 20
138 20
139 20
140 10
141 200
142 20
143 20
144 20
145 20
146 400
147 100
148 20
149 400
150 400
151 100
152 20
153 20
154 20
155 10
156 400
157 400
158 100
159 20
160 20
161 20
162 20
163 200
164 20
165 20
166 20
167 20
168 200
169 100
170 20
171 20
172 200
173 100
174 20
175 20
176 10
177 400
178 200
179 20
180 10
181 400
182 100
183 400
184 200
185 20
186 10
187 200
188 100
189 20
190 20
191 400
192 100
193 20
194 20
195 20
196 20
197 10
198 400
199 200
200 100
201 20
202 20
203 20
204 10
205 400
206 200
207 100
208 20
209 200
210 20
211 20
212 20
213 20
214 10
215 200
216 100
217 20
218 10
219 400
220 400
221 100
222 20
223 20
224 20
225 20
226 10
227 400
228 100
229 20
230 20
231 20
232 20
233 200
234 100
235 10
236 400
237 400
238 20
239 20
240 20
241 400
242 400
243 20
244 20
245 20
246 10
247 200
248 100
249 10
250 400
251 400
252 100
253 400
254 200
255 100
256 20
257 20
258 20
259 20
260 400
261 200
262 100
263 400
264 400
265 20
266 20
267 20
268 10
269 400
270 400
271 10
272 400
273 100
274 20
275 20
276 10
277 400
278 100
279 20
280 20
281 20
282 200
283 100
284 20
285 20
286 200
287 100
288 20
289 20
290 200
291 20
292 20
293 20
294 400
295 100
296 10
297 200
298 100
299 10
300 400
301 400
302 200
303 400
304 20
305 20
306 10
307 400
308 20
309 400
310 400
311 20
312 20
313 20
314 20
315 10
316 400
317 100
318 200
319 100
320 10
321 200
322 20
323 20
324 20
325 10
326 200
327 100
328 400
329 400
330 100
331 10
332 200
333 20
334 20
335 10
336 400
337 400
338 20
339 20
340 20
341 20
342 400
343 400
344 100
345 20
346 20
347 20
348 400
349 200
350 20
351 10
352 200
353 100
354 20
355 20
356 400
357 400
358 20
359 20
360 400
361 200
362 400
363 100
364 20
365 400
366 200
367 100
368 20
369 20
370 20
371 20
372 10
373 400
374 20
375 20
376 20
377 20
378 10
379 400
380 100
381 20
382 20
383 10
384 400
385 20
386 20
387 10
388 400
389 400
390 20
391 20
392 20
393 20
394 400
395 400
396 100
397 20
398 20
399 20
400 20
401 400
402 400
403 10
404 400
405 400
406 400
407 200
408 100
409 20
410 20
411 10
412 400
413 400
414 20
415 400
416 200
417 20
418 20
419 20
420 20
421 10
422 200
423 20
424 20
425 20
426 400
427 100
428 20
429 20
430 10
431 400
432 10
433 200
434 100
435 20
436 20
437 400
438 200
439 100
440 20
441 20
442 20
443 200
444 20
445 20
446 20
447 200
448 100
449 20
450 20
451 20
452 400
453 400
454 20
455 10
456 400
457 20
458 400
459 400
460 100
461 20
462 20
463 20
464 400
465 400
466 100
467 20
468 20
469 20
470 20
471 10
472 200
473 100
474 20
475 10
476 200
477 100
478 20
479 20
480 10
481 400
482 100
483 20
484 20
485 10
486 400
487 10
488 400
489 200
490 20
491 20
492 20
493 10
494 400
495 400
496 20
497 20
498 400
499 400
500 100
501 10
502 400
503 200
504 100
505 400
506 200
507 100
508 20
509 20
510 20
511 400
512 400
513 100
514 20
515 20
516 20
517 20
518 400
519 200
520 20
521 20
522 20
523 10
524 400
525 100
526 20
527 10
528 400
529 100
530 20
531 20
532 20
533 20
534 10
535 400
536 20
537 20
538 20
539 10
540 400
541 400
542 200
543 200
544 100
545 400
546 400
547 200
548 400
549 400
550 200
551 400
552 20
553 400
554 400
555 20
556 20
557 10
558 400
559 400
560 20
561 400
562 400
563 100
564 20
565 20
566 20
567 10
568 400
569 100
570 20
571 10
572 400
573 200
574 20
575 20
576 20
577 20
578 10
579 400
580 400
581 100
582 10
583 400
584 200
585 100
586 10
587 400
588 100
589 20
590 10
591 400
592 400
593 400
594 100
595 400
596 400
597 100
598 20
599 20
600 20
601 20
602 400
603 400
604 20
605 20
606 10
607 400
608 200
609 100
610 20
611 20
612 20
613 10
614 400
615 200
616 100
617 20
618 10
619 400
620 400
621 100
622 20
623 20
624 20
625 400
626 100
627 400
628 400
629 10
630 400
631 400
632 20
633 20
634 20
635 400
636 400
637 100
638 20
639 20
640 20
641 20
642 200
643 100
644 20
645 20
646 20
647 10
648 400
649 200
650 10
651 200
652 100
653 20
654 10
655 200
656 20
657 20
658 20
659 10
660 400
661 200
662 20
663 200
664 20
665 20
666 20
DEPOT_SECTION
1
-1
EOF