SDVRP instances/custom_instances/p04_11_splitx10_0.sol
665 -4 1 2 3 321 323 324 322 320 26 28 27 379 378 381 380 382 631 632 633 448 449 -5 6 663 662 664 580 579 578 581 237 238 -7 495 496 559 558 557 376 377 372 374 375 373 665 58 57 -14 13 52 55 54 51 56 53 356 357 358 355 362 33 32 -16 18 15 17 640 637 636 634 638 635 639 620 -19 67 69 70 68 145 127 128 170 167 -21 24 25 22 23 20 72 71 73 74 344 345 341 342 -31 30 29 363 361 216 215 217 214 523 524 525 526 -35 38 34 36 37 156 159 155 158 160 161 157 -39 41 43 40 42 44 230 231 228 226 227 229 131 132 475 478 476 479 477 -62 64 585 583 584 582 577 571 574 572 576 573 575 592 593 -81 77 75 76 78 80 79 348 347 350 349 -84 86 85 82 83 502 286 503 285 501 287 288 597 598 600 599 -91 88 460 462 90 458 457 87 546 442 444 443 445 -93 95 92 94 403 404 282 281 283 284 -99 96 100 97 98 195 190 193 191 196 192 194 183 185 184 182 -101 103 104 105 102 649 648 647 120 123 122 119 121 232 233 234 343 346 -114 113 49 50 46 45 47 48 250 455 251 -117 118 116 115 207 205 204 206 629 630 -124 268 270 269 130 129 112 111 110 467 469 -134 137 138 133 135 139 136 549 548 547 -143 144 141 140 142 109 106 107 108 310 308 313 311 312 314 309 -146 147 615 614 617 613 616 541 539 540 168 169 -165 163 162 164 166 259 261 595 596 594 542 543 -172 171 173 202 197 490 492 491 489 487 488 187 188 189 186 334 332 333 331 -175 174 295 293 294 181 180 8 11 9 12 10 567 570 568 569 -178 610 177 176 607 606 608 611 179 609 612 -200 203 201 199 198 645 646 643 644 642 641 628 538 534 537 627 535 536 626 -213 210 212 209 211 208 307 306 397 398 395 399 394 396 393 459 89 461 -218 219 256 253 258 255 252 257 254 509 507 508 505 506 -223 225 222 224 221 220 353 354 351 352 359 360 551 550 485 486 -239 236 235 562 560 563 561 564 565 566 260 -247 474 473 472 315 316 483 482 484 481 480 416 414 415 417 420 418 419 -274 273 275 272 271 411 413 412 298 297 296 318 319 317 -276 518 517 519 520 522 521 401 402 400 500 499 -277 278 279 280 300 301 299 405 407 406 409 410 408 -289 290 291 292 589 587 588 586 553 556 552 554 555 651 653 650 652 -305 304 302 303 149 153 154 150 148 151 152 426 429 425 427 428 -325 326 451 452 454 453 622 618 619 621 623 -329 327 328 330 456 249 432 433 434 435 126 125 471 -339 335 338 336 340 337 513 512 510 514 511 516 515 -384 385 386 383 65 61 63 60 59 66 545 544 -387 390 388 391 389 392 264 267 263 265 262 266 603 604 605 446 -423 424 421 422 437 439 438 441 440 436 466 468 465 464 463 470 -430 431 371 366 367 369 368 370 365 364 494 493 -450 447 601 602 658 655 656 657 654 498 497 -504 533 531 529 528 530 527 532 246 248 591 590 -625 624 244 240 245 243 242 241 660 659 661 0 





OBJ=
4401.402
BEST_KNOWN=
0.000